# SPCE water parameters
bond_coeff   1           1000.0  1.0
# explanation:  http://lammps.sandia.gov/doc/bond_harmonic.html

angle_coeff  1           1000.0  109.47
# explanation:  http://lammps.sandia.gov/doc/angle_harmonic.html

pair_coeff   1 1         0.1553  3.166
pair_coeff   2 2         0.0     0.0
pair_coeff   1 2         0.0     0.0
# explanation:  http://lammps.sandia.gov/doc/pair_charmm.html

# nitrate parameters
bond_coeff 2 634.20 1.27
angle_coeff 2 120.8174 120.00
dihedral_coeff 1 0.0 2.0 0.0 0.0

# forcefield parameters
pair_coeff 7 1 0.9063867827809494 3.0585 3.4330501747542175
pair_coeff 7 2 0.0 1.4755 1.65619275228048
pair_coeff 7 3 0.7273238618387272 3.4175 3.8360140500972824
pair_coeff 7 4 1.0285912696499033 3.4255 3.844993746483757
pair_coeff 7 5 0.9055109055113583 3.0525 3.426315402464361
pair_coeff 7 6 0 0
pair_coeff 7 7 0 0
pair_coeff 6 1 0.9063867827809494 3.0585 3.4330501747542175
pair_coeff 6 2 0.0 1.4755 1.65619275228048
pair_coeff 6 3 0.7273238618387272 3.4175 3.8360140500972824
pair_coeff 6 4 1.0285912696499033 3.4255 3.844993746483757
pair_coeff 6 5 0.9055109055113583 3.0525 3.426315402464361
pair_coeff 6 6 0 0
pair_coeff 5 1 0.15514992748950932 3.16
pair_coeff 5 2 0.0 1.577
pair_coeff 5 3 0.12449899597988733 3.519
pair_coeff 5 4 0.17606816861659008 3.527
pair_coeff 5 5 0.155 3.154
pair_coeff 4 1 0.17623847480048163 3.533
pair_coeff 4 2 0.0 1.95
pair_coeff 4 3 0.14142135623730953 3.892
pair_coeff 4 4 0.2 3.9
pair_coeff 3 1 0.12461942063739503 3.525
pair_coeff 3 2 0.0 1.942
pair_coeff 3 3 0.1 3.884
